unknown
(model
; cardinality of BoundSet is 4
(declare-sort BoundSet 0)
; rep: @uc_BoundSet_0
; rep: @uc_BoundSet_1
; rep: @uc_BoundSet_2
; rep: @uc_BoundSet_3
; cardinality of UnboundSet is 1
(declare-sort UnboundSet 0)
(declare-fun groundTerm_5 () UnboundSet)
(define-fun IsIncreaseInFloodingActivity ((BOUND_VARIABLE_488 BoundSet)) Bool true)
(define-fun IsDueTo ((BOUND_VARIABLE_488 BoundSet)) Bool true)
(define-fun AltersRiverFlow ((BOUND_VARIABLE_495 BoundSet) (BOUND_VARIABLE_496 BoundSet)) Bool true)
(define-fun AltersStreamFlow ((BOUND_VARIABLE_495 BoundSet) (BOUND_VARIABLE_496 BoundSet)) Bool true)
(define-fun CauseIncreaseInFloodingActivity ((BOUND_VARIABLE_495 BoundSet) (BOUND_VARIABLE_496 BoundSet)) Bool false)
)
sat
(model
; cardinality of BoundSet is 1
(declare-sort BoundSet 0)
; rep: @uc_BoundSet_0
; cardinality of UnboundSet is 1
(declare-sort UnboundSet 0)
(declare-fun groundTerm_11 () UnboundSet)
(define-fun IsIncreaseInFloodingActivity ((BOUND_VARIABLE_557 BoundSet)) Bool true)
(define-fun IsDueTo ((BOUND_VARIABLE_557 BoundSet)) Bool true)
(define-fun AltersRiverFlow ((BOUND_VARIABLE_564 BoundSet) (BOUND_VARIABLE_565 BoundSet)) Bool true)
(define-fun AltersStreamFlow ((BOUND_VARIABLE_564 BoundSet) (BOUND_VARIABLE_565 BoundSet)) Bool true)
(define-fun CauseIncreaseInFloodingActivity ((BOUND_VARIABLE_564 BoundSet) (BOUND_VARIABLE_565 BoundSet)) Bool true)
)
